Route #1: 54 6 20 19 50 15 43 46 2 4 42 40
Route #2: 30 13 3 28 36 34 24 56 59
Route #3: 39 44
Route #4: 57 38 23 22 55 12 52 48 33 45 35 58
Route #5: 1 8 47 17 61 10 9 7
Route #6: 51 27 29 14 63 21 32 25 62
Route #7: 31 5
Route #8: 26 41 60 16 11
Route #9: 49 37 53
Route #10: 18
cost 2475.8978844380144
